% Generated FlatZinc statistics:
%%%mzn-stat: paths=0
%%%mzn-stat: flatBoolVars=467590
%%%mzn-stat: flatIntVars=162351
%%%mzn-stat: flatBoolConstraints=163660
%%%mzn-stat: flatIntConstraints=645481
%%%mzn-stat: evaluatedReifiedConstraints=466620
%%%mzn-stat: evaluatedHalfReifiedConstraints=314110
%%%mzn-stat: method="minimize"
%%%mzn-stat: flatTime=19.864
%%%mzn-stat-end

agentAtTimeT = array2d(1..35, 1..10, [86, 106, 180, 97, 412, 168, 285, 380, 425, 217, 87, 123, 181, 114, 413, 169, 266, 379, 426, 216, 88, 140, 201, 129, 414, 170, 265, 378, 427, 194, 89, 159, 202, 149, 434, 190, 264, 363, 428, 193, 90, 160, 203, 168, 435, 191, 244, 345, 429, 192, 91, 161, 204, 167, 436, 192, 223, 344, 430, 191, 92, 162, 205, 188, 437, 193, 203, 326, 410, 190, 70, 183, 206, 210, 416, 194, 202, 325, 411, 189, 71, 203, 207, 230, 417, 216, 201, 324, 393, 212, 72, 204, 208, 250, 418, 236, 200, 323, 374, 211, 73, 224, 209, 269, 419, 255, 200, 322, 358, 210, 74, 245, 210, 290, 420, 256, 200, 321, 359, 209, 54, 265, 211, 289, 421, 256, 200, 320, 360, 208, 55, 284, 212, 288, 422, 256, 200, 319, 342, 187, 34, 285, 232, 287, 401, 256, 200, 318, 323, 186, 14, 286, 232, 304, 383, 256, 200, 317, 306, 186, 15, 303, 232, 321, 367, 256, 200, 338, 289, 186, 16, 304, 232, 320, 350, 256, 200, 337, 268, 186, 16, 305, 232, 319, 332, 256, 200, 336, 249, 186, 16, 322, 232, 339, 332, 256, 200, 335, 229, 186, 16, 323, 232, 356, 332, 256, 200, 353, 230, 186, 16, 324, 232, 373, 332, 256, 200, 370, 210, 186, 16, 325, 232, 391, 332, 256, 200, 370, 211, 186, 16, 326, 232, 409, 332, 256, 200, 370, 212, 186, 16, 327, 232, 409, 332, 256, 200, 370, 189, 186, 16, 328, 232, 409, 332, 256, 200, 370, 169, 186, 16, 329, 232, 409, 332, 256, 200, 370, 170, 186, 16, 329, 232, 409, 332, 256, 200, 370, 150, 186, 16, 329, 232, 409, 332, 256, 200, 370, 151, 186, 16, 329, 232, 409, 332, 256, 200, 370, 152, 186, 16, 329, 232, 409, 332, 256, 200, 370, 153, 186, 16, 329, 232, 409, 332, 256, 200, 370, 153, 186, 16, 329, 232, 409, 332, 256, 200, 370, 153, 186, 16, 329, 232, 409, 332, 256, 200, 370, 153, 186, 16, 329, 232, 409, 332, 256, 200, 370, 153, 186]);
ET = [18, 27, 15, 24, 19, 12, 10, 22, 31, 15];
objective = 193;
----------
==========
%%%mzn-stat: objective=193
%%%mzn-stat: objectiveBound=193
%%%mzn-stat: boolVariables=116124
%%%mzn-stat: failures=9271
%%%mzn-stat: propagations=8562106
%%%mzn-stat: solveTime=28.5461
%%%mzn-stat: nSolutions=1
%%%mzn-stat-end
